NAME: rd100
DIMENSION: 16
EDGE_WEIGHT_TYPE: EUC_2D
NODE_COORD_SECTION
1 144 863
2 882 1
3 545 735
4 503 876
5 205 345
6 702 577
7 147 164
8 135 808
9 629 977
10 675 731
11 314 299
12 446 982
13 355 765
14 398 976
15 273 854
16 666 312
ACCEPTED_PROBABILITIES
0.0
0.95
0.35
0.3
0.44
0.53
0.58
0.05
0.42
0.46
0.49
0.27
0.19
0.23
0.11
0.64
OUTSOURCING_COSTS
0.0
94.5
35.08
29.92
43.42
52.25
58.17
4.58
41.58
45.58
49.08
27.08
19.33
23.17
10.83
63.25
